0 0 1 1 1 1 1 1 0 0 0 1 
0 30 51 60 47 45 23 26 62 56 52 47 
30 0 48 76 46 35 37 44 60 37 29 64 
51 48 0 19 35 45 31 63 69 68 37 43 
60 76 19 0 20 54 27 58 73 80 42 23 
47 46 35 20 0 22 50 30 48 15 78 55 
45 35 45 54 22 0 75 30 78 30 61 27 
23 37 31 27 50 75 0 18 28 74 45 15 
26 44 63 58 30 30 18 0 72 24 71 72 
62 60 69 73 48 78 28 72 0 70 31 33 
56 37 68 80 15 30 74 24 70 0 34 60 
52 29 37 42 78 61 45 71 31 34 0 39 
47 64 43 23 55 27 15 72 33 60 39 0 
2 50
1B 2B 6P 12P 7P 9B 11B 3P 4P 5P 10B 8P = 307